c 
c G(k,n,p) graph
c graph gen seed     : 1444
c number of vertices : 25
c max number of edges: 500
c number of classes  : 2
c edge density       : 0.600000
c edge probability   : 1.200000
c data structure     : dense
c
c           Graph Stats
c number of vertices  : 25
c nonisolated vertices: 25
c number of edges     : 150
c edge density        : 0.500000
c max degree          : 15
c avg degree          : 12.00
c min degree          : 10
p col 25 150
e 1 3
e 1 5
e 1 7
e 1 8
e 1 9
e 1 11
e 1 12
e 1 13
e 1 14
e 1 15
e 1 17
e 1 19
e 1 21
e 1 22
e 1 24
e 2 3
e 2 5
e 2 7
e 2 8
e 2 9
e 2 11
e 2 12
e 2 13
e 2 14
e 2 15
e 2 17
e 2 19
e 2 21
e 2 22
e 2 24
e 3 4
e 3 6
e 3 10
e 3 16
e 3 18
e 3 20
e 3 23
e 3 25
e 4 5
e 4 7
e 4 8
e 4 9
e 4 11
e 4 12
e 4 13
e 4 14
e 4 15
e 4 17
e 4 19
e 4 21
e 4 22
e 4 24
e 5 6
e 5 10
e 5 16
e 5 18
e 5 20
e 5 23
e 5 25
e 6 7
e 6 8
e 6 9
e 6 11
e 6 12
e 6 13
e 6 14
e 6 15
e 6 17
e 6 19
e 6 21
e 6 22
e 6 24
e 7 10
e 7 16
e 7 18
e 7 20
e 7 23
e 7 25
e 8 10
e 8 16
e 8 18
e 8 20
e 8 23
e 8 25
e 9 10
e 9 16
e 9 18
e 9 20
e 9 23
e 9 25
e 10 11
e 10 12
e 10 13
e 10 14
e 10 15
e 10 17
e 10 19
e 10 21
e 10 22
e 10 24
e 11 16
e 11 18
e 11 20
e 11 23
e 11 25
e 12 16
e 12 18
e 12 20
e 12 23
e 12 25
e 13 16
e 13 18
e 13 20
e 13 23
e 13 25
e 14 16
e 14 18
e 14 20
e 14 23
e 14 25
e 15 16
e 15 18
e 15 20
e 15 23
e 15 25
e 16 17
e 16 19
e 16 21
e 16 22
e 16 24
e 17 18
e 17 20
e 17 23
e 17 25
e 18 19
e 18 21
e 18 22
e 18 24
e 19 20
e 19 23
e 19 25
e 20 21
e 20 22
e 20 24
e 21 23
e 21 25
e 22 23
e 22 25
e 23 24
e 24 25
